56
734 771 1016 742 861 728 929 809 883 772 927 770 822 870 1038 609 968 847 866 1055 815 838 897 846 855 800 842 1033 958 681 971 745 904 793 1055 903 892 878 897 859 954 643 823 947 838 993 783 760 727 997 871 826 872 925 907 871 
12929
39 522 266 180 438 873 124 244 290 344 351 346 510 179 939 150 670 339 150 782 766 1000 692 210 911 370 917 485 220 61 266 526 912 434 957 245 205 824 394 524 856 903 816 210 525 522 449 215 414 233 291 530 754 924 909 360